NAME: PointSet_Angle_30_3
TYPE: TSP
COMMENT: Points chosen discrete uniformly at random out of ${0, \ldots, 500}^2$.
DIMENSION: 30
EDGE_WEIGHT_TYPE: EUC_2D
NODE_COORD_SECTION
1 336 433
2 373 151
3 16 431
4 131 354
5 258 387
6 196 49
7 156 449
8 446 423
9 211 45
10 276 53
11 386 298
12 406 485
13 440 168
14 37 290
15 176 482
16 157 259
17 160 29
18 410 424
19 460 288
20 277 465
21 421 220
22 13 324
23 168 205
24 246 126
25 498 268
26 179 383
27 65 331
28 367 4
29 499 151
30 40 422
EOF
